language ESSENCE' 1.0
letting lastdx=99
letting cage be [
[34,3,6,2,6,2,7,2,8,3,8],
[19,5,13,5,12,6,12,0,0, 0,0],
[2,12,14,0,0, 0,0, 0,0, 0,0],
[61,10,11,10,12,10,13,10,14,10,15],
[11,8,11,0,0, 0,0, 0,0, 0,0],
[9,2,15,3,15,0,0, 0,0, 0,0],
[31,3,11,3,12,4,12,0,0, 0,0],
[21,14,6,13,6,0,0, 0,0, 0,0],
[4,13,10,0,0, 0,0, 0,0, 0,0],
[11,9,15,0,0, 0,0, 0,0, 0,0],
[8,5,2,0,0, 0,0, 0,0, 0,0],
[36,11,1,12,1,12,2,0,0, 0,0],
[19,3,13,2,13,0,0, 0,0, 0,0],
[15,1,3,0,0, 0,0, 0,0, 0,0],
[33,8,3,8,2,8,1,0,0, 0,0],
[9,14,1,0,0, 0,0, 0,0, 0,0],
[36,16,4,16,5,15,5,15,4,0,0],
[1,8,6,0,0, 0,0, 0,0, 0,0],
[4,5,14,0,0, 0,0, 0,0, 0,0],
[37,6,2,7,2,7,3,7,4,8,4],
[30,11,13,12,13,13,13,13,14,0,0],
[24,2,2,2,1,3,1,0,0, 0,0],
[4,2,12,0,0, 0,0, 0,0, 0,0],
[36,9,10,10,10,11,10,12,10,12,11],
[17,11,15,11,14,0,0, 0,0, 0,0],
[11,4,10,0,0, 0,0, 0,0, 0,0],
[8,14,5,0,0, 0,0, 0,0, 0,0],
[6,11,8,0,0, 0,0, 0,0, 0,0],
[1,2,16,0,0, 0,0, 0,0, 0,0],
[6,4,5,0,0, 0,0, 0,0, 0,0],
[43,16,16,15,16,14,16,14,15,0,0],
[29,13,7,13,8,0,0, 0,0, 0,0],
[12,4,1,5,1,0,0, 0,0, 0,0],
[60,8,8,8,9,7,9,7,10,8,10],
[9,16,10,0,0, 0,0, 0,0, 0,0],
[52,7,6,7,7,6,7,6,6,5,6],
[10,16,2,16,3,15,3,0,0, 0,0],
[36,11,7,10,7,10,8,9,8,0,0],
[12,7,12,8,12,0,0, 0,0, 0,0],
[38,10,16,11,16,12,16,13,16,0,0],
[15,15,8,15,7,15,6,0,0, 0,0],
[33,3,9,2,9,3,10,4,9,5,9],
[28,13,2,13,1,14,2,14,3,0,0],
[9,8,14,0,0, 0,0, 0,0, 0,0],
[21,5,16,4,16,3,16,0,0, 0,0],
[39,5,7,4,7,3,7,4,6,0,0],
[24,6,3,5,3,5,4,0,0, 0,0],
[25,8,13,7,13,7,14,7,15,0,0],
[5,11,5,0,0, 0,0, 0,0, 0,0],
[35,6,10,5,10,5,11,4,11,0,0],
[29,4,13,4,14,0,0, 0,0, 0,0],
[26,8,5,9,5,0,0, 0,0, 0,0],
[8,15,9,0,0, 0,0, 0,0, 0,0],
[7,7,16,0,0, 0,0, 0,0, 0,0],
[18,5,8,4,8,0,0, 0,0, 0,0],
[15,1,5,1,6,0,0, 0,0, 0,0],
[9,10,4,0,0, 0,0, 0,0, 0,0],
[9,1,13,0,0, 0,0, 0,0, 0,0],
[12,9,9,0,0, 0,0, 0,0, 0,0],
[31,10,5,10,6,11,6,12,6,0,0],
[41,13,5,13,4,14,4,0,0, 0,0],
[13,1,15,1,16,0,0, 0,0, 0,0],
[38,16,15,16,14,15,14,15,15,0,0],
[11,1,1,1,2,0,0, 0,0, 0,0],
[25,1,14,2,14,3,14,0,0, 0,0],
[11,1,4,0,0, 0,0, 0,0, 0,0],
[36,1,11,1,12,2,11,0,0, 0,0],
[25,2,3,3,3,0,0, 0,0, 0,0],
[24,2,4,3,4,3,5,2,5,0,0],
[12,3,2,0,0, 0,0, 0,0, 0,0],
[14,4,2,0,0, 0,0, 0,0, 0,0],
[11,4,3,4,4,0,0, 0,0, 0,0],
[47,4,15,5,15,6,15,6,16,0,0],
[9,5,5,0,0, 0,0, 0,0, 0,0],
[21,6,1,7,1,0,0, 0,0, 0,0],
[3,6,4,0,0, 0,0, 0,0, 0,0],
[23,6,5,7,5,0,0, 0,0, 0,0],
[17,6,8,6,9,7,8,0,0, 0,0],
[16,6,11,7,11,0,0, 0,0, 0,0],
[28,6,13,6,14,0,0, 0,0, 0,0],
[8,8,15,0,0, 0,0, 0,0, 0,0],
[15,8,16,9,16,0,0, 0,0, 0,0],
[3,9,1,0,0, 0,0, 0,0, 0,0],
[13,9,2,10,2,10,1,0,0, 0,0],
[24,9,3,9,4,0,0, 0,0, 0,0],
[40,9,11,9,12,9,13,9,14,0,0],
[39,10,3,11,3,11,2,12,3,13,3],
[42,10,9,11,9,12,9,13,9,14,9],
[4,11,4,0,0, 0,0, 0,0, 0,0],
[29,12,4,12,5,0,0, 0,0, 0,0],
[26,12,7,12,8,0,0, 0,0, 0,0],
[13,12,15,13,15,0,0, 0,0, 0,0],
[16,14,7,14,8,0,0, 0,0, 0,0],
[36,14,10,14,11,15,11,15,10,15,12],
[5,14,12,0,0, 0,0, 0,0, 0,0],
[16,14,13,14,14,0,0, 0,0, 0,0],
[33,15,1,15,2,16,1,0,0, 0,0],
[5,15,13,16,13,0,0, 0,0, 0,0],
[33,16,6,16,7,16,8,16,9,0,0],
[30,16,11,16,12,0,0, 0,0, 0,0]
]
